% demand
num_movements = 44;
loading_factor = [800, 2000, 1050, 800, 1850, 850, 1900, 1250, 1550, 1050, 1350, 1000, 1300, 1350, 2000, 1550, 1350, 1700, 1650, 2000, 1550, 1650, 900, 1700, 1750, 1550, 1300, 1500, 1850, 800, 1500, 1650, 1200, 1150, 1050, 1300, 1250, 850, 2000, 1050, 1900, 1450, 1050, 1050];
pickup_time = [0, 0, 0, 0, 0, 0, 0, 0, 1, 1, 1, 2, 3, 4, 4, 4, 4, 5, 5, 5, 5, 7, 7, 7, 8, 8, 8, 8, 8, 9, 9, 10, 10, 10, 11, 11, 11, 11, 13, 13, 13, 13, 13, 13];
delivery_time = [4, 1, 4, 1, 3, 3, 1, 1, 4, 4, 4, 3, 4, 5, 7, 5, 5, 7, 6, 7, 7, 9, 11, 8, 12, 9, 9, 10, 11, 12, 10, 12, 12, 12, 12, 12, 12, 12, 14, 14, 14, 14, 14, 14];

% transporter definition
total_capacity = 11000;
num_decks = 4;
capacity = [3000, 3000, 1000, 4000];

% ways out of decks
num_ways_out = 2;
paths_out = array3d(decks, ways_out, decks, [
% ways out of deck d1
2, 4, 0, 0, 3, 4, 0, 0, 

% ways out of deck d2
4, 0, 0, 0, 0, 0, 0, 0,	

% ways out of deck d3
4, 0, 0, 0, 0, 0, 0, 0,	

% ways out of deck d4
0, 0, 0, 0,	0, 0, 0, 0,	

]);

